instances/knapsack/discrete/knapsack_80_18.kp
40344
80
369

27 2.7 89
79 7.9 6
53 5.3 7
98 9.8 27
71 7.1 33
9 0.9 36
40 4.0 61
15 1.5 71
8 0.8 38
49 4.9 58
79 7.9 66
74 7.4 46
31 3.1 90
95 9.5 25
72 7.2 94
100 10.0 39
72 7.2 85
99 9.9 33
56 5.6 2
33 3.3 49
44 4.4 25
19 1.9 66
19 1.9 87
50 5.0 11
20 2.0 36
59 5.9 86
29 2.9 31
71 7.1 59
81 8.1 57
2 0.2 84
1 0.1 92
63 6.3 55
67 6.7 91
44 4.4 78
75 7.5 63
56 5.6 100
7 0.7 44
24 2.4 78
55 5.5 58
78 7.8 75
34 3.4 27
93 9.3 93
65 6.5 41
1 0.1 90
38 3.8 94
66 6.6 54
89 8.9 24
45 4.5 8
2 0.2 88
67 6.7 81
26 2.6 42
23 2.3 58
24 2.4 38
59 5.9 32
8 0.8 43
43 4.3 45
92 9.2 42
38 3.8 59
27 2.7 79
85 8.5 62
52 5.2 3
14 1.4 25
99 9.9 85
22 2.2 5
63 6.3 26
7 0.7 64
44 4.4 60
94 9.4 57
59 5.9 72
25 2.5 57
93 9.3 28
41 4.1 30
5 0.5 64
70 7.0 13
3 0.3 50
48 4.8 61
54 5.4 33
50 5.0 68
64 6.4 23
22 2.2 51

37148
358

[2.73 2.0 4.46 3.85 3.44 1.11 1.0 1.06 2.49 0.01 0.04 3.78 0.94 3.61 0.92 1.08 1.22 1.07 3.39 0.55 3.51 2.39 3.98 3.53 2.43 2.44 0.27 0.06 4.13 0.36 1.02 3.37 4.02 0.65 2.88 2.99 4.43 0.59 1.04 0.71 3.63 3.15 1.65 1.57 0.27 0.71 3.41 3.52 1.99 3.24 0.86 4.46 2.2 1.72 3.25 3.21 3.44 1.6 1.41 3.92 0.81 3.5 0.48 4.17 0.13 0.0 0.85 2.58 1.22 3.68 2.74 1.16 0.96 4.38 1.67 0.32 0.54 0.04 1.91 0.85]

[1 37 59 68 49 23 30 37 98 91 53 64 73 21 22 78 82 1 46 51 66 21 21 60 66 25 31 65 51 52 7 93 29 18 29 74 21 74 69 12 24 71 99 11 12 44 91 75 48 53 68 5 82 33 54 69 10 36 45 75 94 96 9 12 9 85 14 32 93 15 11 59 39 24 49 18 100 44 10 80]
