instances/knapsack/discrete/knapsack_80_18.lp
\ Model knapsack_80_18
\ LP format - for model browsing. Use MPS format to capture full model detail.
\ Signature: 0xf86d0bbf74a39a5e
Minimize
  - 28 x[0] - 84 x[1] - 50 x[2] - 74 x[3] - 83 x[4] - 55 x[5] - 15 x[6]
   - 33 x[7] - 28 x[8] - 12 x[9] - 73 x[10] - 45 x[11] - 65 x[12]
   - 48 x[13] - 37 x[14] - 66 x[15] - 56 x[16] - 4 x[17] - 48 x[18]
   - 87 x[19] - 71 x[20] - 65 x[21] - 6 x[22] - 58 x[23] - 67 x[24]
   - 92 x[25] - 90 x[26] - 37 x[27] - 4 x[28] - 38 x[29] - 11 x[30]
   - 62 x[31] - 66 x[32] - 25 x[33] - 93 x[34] - 19 x[35] - 79 x[36]
   - 89 x[37] - 96 x[38] - 37 x[39] - 18 x[40] - 63 x[41] - 95 x[42]
   - 21 x[43] - 96 x[44] - 93 x[45] - 10 x[46] - 46 x[47] - 46 x[48]
   - 43 x[49] - 65 x[50] - 100 x[51] - 81 x[52] - 55 x[53] - 70 x[54]
   - 24 x[55] - 52 x[56] - 14 x[57] - 50 x[58] - 17 x[59] - 78 x[60]
   - 4 x[61] - 63 x[62] - 79 x[63] - 60 x[64] - 87 x[65] - 51 x[66]
   - 91 x[67] - 6 x[68] - 59 x[69] - 27 x[70] - 5 x[71] - 87 x[72]
   - 43 x[73] - 16 x[74] - 16 x[75] - 56 x[76] - 67 x[77] - 62 x[78]
   - 81 x[79]
Subject To
 primal_upper: 59 x[0] + 36 x[1] + 62 x[2] + 91 x[3] + 32 x[4] + 61 x[5]
   + 45 x[6] + 19 x[7] + 93 x[8] + 70 x[9] + 19 x[10] + 35 x[11] + 40 x[12]
   + 72 x[13] + 4 x[14] + 72 x[15] + 53 x[16] + 48 x[17] + x[18] + 94 x[19]
   + 85 x[20] + 31 x[21] + 60 x[22] + 18 x[23] + 64 x[24] + 20 x[25]
   + 22 x[26] + 63 x[27] + 9 x[28] + 11 x[29] + 93 x[30] + 23 x[31]
   + 63 x[32] + 73 x[33] + 40 x[34] + 29 x[35] + 32 x[36] + 72 x[37]
   + 4 x[38] + 30 x[39] + 63 x[40] + 65 x[41] + 6 x[42] + 65 x[43]
   + 47 x[44] + 58 x[45] + 57 x[46] + 9 x[47] + 55 x[48] + 44 x[49]
   + 14 x[50] + 96 x[51] + 57 x[52] + 32 x[53] + 76 x[54] + 99 x[55]
   + 69 x[56] + 62 x[57] + 40 x[58] + 10 x[59] + 60 x[60] + 90 x[61]
   + 63 x[62] + 66 x[63] + 67 x[64] + 96 x[65] + 92 x[66] + 34 x[67]
   + 44 x[68] + 5 x[69] + 61 x[70] + 89 x[71] + 86 x[72] + 19 x[73]
   + 59 x[74] + 68 x[75] + 78 x[76] + 59 x[77] + 92 x[78] + 10 x[79]
   + 5.9 r[0] + 3.6 r[1] + 6.2 r[2] + 9.1 r[3] + 3.2 r[4] + 6.1 r[5]
   + 4.5 r[6] + 1.9 r[7] + 9.3 r[8] + 7 r[9] + 1.9 r[10] + 3.5 r[11]
   + 4 r[12] + 7.2 r[13] + 0.4 r[14] + 7.2 r[15] + 5.3 r[16] + 4.8 r[17]
   + 0.1 r[18] + 9.4 r[19] + 8.5 r[20] + 3.1 r[21] + 6 r[22] + 1.8 r[23]
   + 6.4 r[24] + 2 r[25] + 2.2 r[26] + 6.3 r[27] + 0.9 r[28] + 1.1 r[29]
   + 9.3 r[30] + 2.3 r[31] + 6.3 r[32] + 7.3 r[33] + 4 r[34] + 2.9 r[35]
   + 3.2 r[36] + 7.2 r[37] + 0.4 r[38] + 3 r[39] + 6.3 r[40] + 6.5 r[41]
   + 0.6 r[42] + 6.5 r[43] + 4.7 r[44] + 5.8 r[45] + 5.7 r[46] + 0.9 r[47]
   + 5.5 r[48] + 4.4 r[49] + 1.4 r[50] + 9.6 r[51] + 5.7 r[52] + 3.2 r[53]
   + 7.6 r[54] + 9.9 r[55] + 6.9 r[56] + 6.2 r[57] + 4 r[58] + r[59]
   + 6 r[60] + 9 r[61] + 6.3 r[62] + 6.6 r[63] + 6.7 r[64] + 9.6 r[65]
   + 9.2 r[66] + 3.4 r[67] + 4.4 r[68] + 0.5 r[69] + 6.1 r[70] + 8.9 r[71]
   + 8.6 r[72] + 1.9 r[73] + 5.9 r[74] + 6.8 r[75] + 7.8 r[76] + 5.9 r[77]
   + 9.2 r[78] + r[79] <= 391
 primal_lower: 1.805657063920287 x[0] + 1.635962965795435 x[1]
   + 0.5944545240892423 x[2] + 0.5595165667917869 x[3]
   + 3.415003777612298 x[4] + 0.4631172833160896 x[5]
   + 0.4931715056886554 x[6] + 2.546865917663983 x[7]
   + 1.114942862249647 x[8] + 0.9214928455540472 x[9]
   + 2.388452766072815 x[10] + 2.888307727030432 x[11]
   + 1.329603536698187 x[12] + 0.3750968340081278 x[13]
   + 1.366223347926867 x[14] + 1.551383872443415 x[15]
   + 4.700568787804034 x[16] + 3.06961300423344 x[17]
   + 1.844306308307376 x[18] + 3.084342611671997 x[19]
   + 3.370725269835214 x[20] + 3.566731893728726 x[21]
   + 3.941970807723816 x[22] + 1.927364199044164 x[23]
   + 2.961347915744807 x[24] + 1.209217507531553 x[25]
   + 0.1208298681810498 x[26] + 0.8641604504817105 x[27]
   + 0.8415293732890075 x[28] + 4.095797414564376 x[29]
   + 1.633495062448051 x[30] + 1.978932914919054 x[31]
   + 4.629349266863632 x[32] + 4.382612798054054 x[33]
   + 0.4518833161553816 x[34] + 0.9008276684887688 x[35]
   + 3.175440760802007 x[36] + 3.64863934609788 x[37]
   + 1.48125717737945 x[38] + 0.661872816448936 x[39]
   + 1.687114139326322 x[40] + 3.008607830404581 x[41]
   + 1.81910326456563 x[42] + 3.470610252559207 x[43]
   + 0.5319441999601723 x[44] + 0.3570011528079401 x[45]
   + 2.321391503862364 x[46] + 3.141822594035402 x[47]
   + 2.889018555402469 x[48] + 2.545054302423664 x[49]
   + 3.216468620583491 x[50] + 1.843312759371548 x[51]
   + 3.988547336384886 x[52] + 1.433125577624854 x[53]
   + 3.512326156954002 x[54] + 3.650049134763702 x[55]
   + 1.689396658733701 x[56] + 3.237635212586312 x[57]
   + 3.21061779008443 x[58] + 0.1602115509108839 x[59]
   + 0.6307348939790715 x[60] + 2.662831677056407 x[61]
   + 2.968394433187466 x[62] + 2.777378161956874 x[63]
   + 4.416921283215091 x[64] + 3.889253556748012 x[65]
   + 2.468032245409409 x[66] + 4.856698525495788 x[67]
   + 1.507624364967942 x[68] + 4.17756437209021 x[69]
   + 2.248678802194002 x[70] + 4.929703077626952 x[71]
   + 2.775602465462249 x[72] + 0.76341237068409 x[73]
   + 1.829381345911768 x[74] + 4.438927569331129 x[75]
   + 4.391926027633764 x[76] + 3.121613853615516 x[77]
   + 0.8704939443412067 x[78] + 2.233330962330212 x[79] + 77 u[0] + 86 u[1]
   + 36 u[2] + 69 u[3] + 94 u[4] + 23 u[5] + 15 u[6] + 13 u[7] + 11 u[8]
   + 68 u[9] + 41 u[10] + 21 u[11] + 74 u[12] + 6 u[13] + 82 u[14]
   + 82 u[15] + 91 u[16] + 14 u[17] + 67 u[18] + 80 u[19] + 59 u[20]
   + 77 u[21] + 22 u[22] + 52 u[23] + 26 u[24] + 54 u[25] + 28 u[26]
   + 25 u[27] + 27 u[28] + 57 u[29] + 31 u[30] + 65 u[31] + 9 u[32]
   + 87 u[33] + 30 u[34] + 27 u[35] + 46 u[36] + 14 u[37] + 50 u[38]
   + 88 u[39] + 81 u[40] + 35 u[41] + 80 u[42] + 35 u[43] + 53 u[44]
   + 12 u[45] + 75 u[46] + 71 u[47] + 85 u[48] + 50 u[49] + 56 u[50]
   + 78 u[51] + 95 u[52] + 46 u[53] + 26 u[54] + 49 u[55] + 75 u[56]
   + 72 u[57] + 2 u[58] + 80 u[59] + 62 u[60] + 76 u[61] + 73 u[62]
   + 92 u[63] + 89 u[64] + 34 u[65] + 18 u[66] + 64 u[67] + 30 u[68]
   + 19 u[69] + 95 u[70] + 71 u[71] + 44 u[72] + 53 u[73] + u[74]
   + 22 u[75] + 92 u[76] + 57 u[77] + 58 u[78] + 68 u[79] <= 23417
 mccormick1[0]: - u[0] + r[0] <= 0
 mccormick1[1]: - u[1] + r[1] <= 0
 mccormick1[2]: - u[2] + r[2] <= 0
 mccormick1[3]: - u[3] + r[3] <= 0
 mccormick1[4]: - u[4] + r[4] <= 0
 mccormick1[5]: - u[5] + r[5] <= 0
 mccormick1[6]: - u[6] + r[6] <= 0
 mccormick1[7]: - u[7] + r[7] <= 0
 mccormick1[8]: - u[8] + r[8] <= 0
 mccormick1[9]: - u[9] + r[9] <= 0
 mccormick1[10]: - u[10] + r[10] <= 0
 mccormick1[11]: - u[11] + r[11] <= 0
 mccormick1[12]: - u[12] + r[12] <= 0
 mccormick1[13]: - u[13] + r[13] <= 0
 mccormick1[14]: - u[14] + r[14] <= 0
 mccormick1[15]: - u[15] + r[15] <= 0
 mccormick1[16]: - u[16] + r[16] <= 0
 mccormick1[17]: - u[17] + r[17] <= 0
 mccormick1[18]: - u[18] + r[18] <= 0
 mccormick1[19]: - u[19] + r[19] <= 0
 mccormick1[20]: - u[20] + r[20] <= 0
 mccormick1[21]: - u[21] + r[21] <= 0
 mccormick1[22]: - u[22] + r[22] <= 0
 mccormick1[23]: - u[23] + r[23] <= 0
 mccormick1[24]: - u[24] + r[24] <= 0
 mccormick1[25]: - u[25] + r[25] <= 0
 mccormick1[26]: - u[26] + r[26] <= 0
 mccormick1[27]: - u[27] + r[27] <= 0
 mccormick1[28]: - u[28] + r[28] <= 0
 mccormick1[29]: - u[29] + r[29] <= 0
 mccormick1[30]: - u[30] + r[30] <= 0
 mccormick1[31]: - u[31] + r[31] <= 0
 mccormick1[32]: - u[32] + r[32] <= 0
 mccormick1[33]: - u[33] + r[33] <= 0
 mccormick1[34]: - u[34] + r[34] <= 0
 mccormick1[35]: - u[35] + r[35] <= 0
 mccormick1[36]: - u[36] + r[36] <= 0
 mccormick1[37]: - u[37] + r[37] <= 0
 mccormick1[38]: - u[38] + r[38] <= 0
 mccormick1[39]: - u[39] + r[39] <= 0
 mccormick1[40]: - u[40] + r[40] <= 0
 mccormick1[41]: - u[41] + r[41] <= 0
 mccormick1[42]: - u[42] + r[42] <= 0
 mccormick1[43]: - u[43] + r[43] <= 0
 mccormick1[44]: - u[44] + r[44] <= 0
 mccormick1[45]: - u[45] + r[45] <= 0
 mccormick1[46]: - u[46] + r[46] <= 0
 mccormick1[47]: - u[47] + r[47] <= 0
 mccormick1[48]: - u[48] + r[48] <= 0
 mccormick1[49]: - u[49] + r[49] <= 0
 mccormick1[50]: - u[50] + r[50] <= 0
 mccormick1[51]: - u[51] + r[51] <= 0
 mccormick1[52]: - u[52] + r[52] <= 0
 mccormick1[53]: - u[53] + r[53] <= 0
 mccormick1[54]: - u[54] + r[54] <= 0
 mccormick1[55]: - u[55] + r[55] <= 0
 mccormick1[56]: - u[56] + r[56] <= 0
 mccormick1[57]: - u[57] + r[57] <= 0
 mccormick1[58]: - u[58] + r[58] <= 0
 mccormick1[59]: - u[59] + r[59] <= 0
 mccormick1[60]: - u[60] + r[60] <= 0
 mccormick1[61]: - u[61] + r[61] <= 0
 mccormick1[62]: - u[62] + r[62] <= 0
 mccormick1[63]: - u[63] + r[63] <= 0
 mccormick1[64]: - u[64] + r[64] <= 0
 mccormick1[65]: - u[65] + r[65] <= 0
 mccormick1[66]: - u[66] + r[66] <= 0
 mccormick1[67]: - u[67] + r[67] <= 0
 mccormick1[68]: - u[68] + r[68] <= 0
 mccormick1[69]: - u[69] + r[69] <= 0
 mccormick1[70]: - u[70] + r[70] <= 0
 mccormick1[71]: - u[71] + r[71] <= 0
 mccormick1[72]: - u[72] + r[72] <= 0
 mccormick1[73]: - u[73] + r[73] <= 0
 mccormick1[74]: - u[74] + r[74] <= 0
 mccormick1[75]: - u[75] + r[75] <= 0
 mccormick1[76]: - u[76] + r[76] <= 0
 mccormick1[77]: - u[77] + r[77] <= 0
 mccormick1[78]: - u[78] + r[78] <= 0
 mccormick1[79]: - u[79] + r[79] <= 0
 mccormick2[0]: - x[0] + r[0] <= 0
 mccormick2[1]: - x[1] + r[1] <= 0
 mccormick2[2]: - x[2] + r[2] <= 0
 mccormick2[3]: - x[3] + r[3] <= 0
 mccormick2[4]: - x[4] + r[4] <= 0
 mccormick2[5]: - x[5] + r[5] <= 0
 mccormick2[6]: - x[6] + r[6] <= 0
 mccormick2[7]: - x[7] + r[7] <= 0
 mccormick2[8]: - x[8] + r[8] <= 0
 mccormick2[9]: - x[9] + r[9] <= 0
 mccormick2[10]: - x[10] + r[10] <= 0
 mccormick2[11]: - x[11] + r[11] <= 0
 mccormick2[12]: - x[12] + r[12] <= 0
 mccormick2[13]: - x[13] + r[13] <= 0
 mccormick2[14]: - x[14] + r[14] <= 0
 mccormick2[15]: - x[15] + r[15] <= 0
 mccormick2[16]: - x[16] + r[16] <= 0
 mccormick2[17]: - x[17] + r[17] <= 0
 mccormick2[18]: - x[18] + r[18] <= 0
 mccormick2[19]: - x[19] + r[19] <= 0
 mccormick2[20]: - x[20] + r[20] <= 0
 mccormick2[21]: - x[21] + r[21] <= 0
 mccormick2[22]: - x[22] + r[22] <= 0
 mccormick2[23]: - x[23] + r[23] <= 0
 mccormick2[24]: - x[24] + r[24] <= 0
 mccormick2[25]: - x[25] + r[25] <= 0
 mccormick2[26]: - x[26] + r[26] <= 0
 mccormick2[27]: - x[27] + r[27] <= 0
 mccormick2[28]: - x[28] + r[28] <= 0
 mccormick2[29]: - x[29] + r[29] <= 0
 mccormick2[30]: - x[30] + r[30] <= 0
 mccormick2[31]: - x[31] + r[31] <= 0
 mccormick2[32]: - x[32] + r[32] <= 0
 mccormick2[33]: - x[33] + r[33] <= 0
 mccormick2[34]: - x[34] + r[34] <= 0
 mccormick2[35]: - x[35] + r[35] <= 0
 mccormick2[36]: - x[36] + r[36] <= 0
 mccormick2[37]: - x[37] + r[37] <= 0
 mccormick2[38]: - x[38] + r[38] <= 0
 mccormick2[39]: - x[39] + r[39] <= 0
 mccormick2[40]: - x[40] + r[40] <= 0
 mccormick2[41]: - x[41] + r[41] <= 0
 mccormick2[42]: - x[42] + r[42] <= 0
 mccormick2[43]: - x[43] + r[43] <= 0
 mccormick2[44]: - x[44] + r[44] <= 0
 mccormick2[45]: - x[45] + r[45] <= 0
 mccormick2[46]: - x[46] + r[46] <= 0
 mccormick2[47]: - x[47] + r[47] <= 0
 mccormick2[48]: - x[48] + r[48] <= 0
 mccormick2[49]: - x[49] + r[49] <= 0
 mccormick2[50]: - x[50] + r[50] <= 0
 mccormick2[51]: - x[51] + r[51] <= 0
 mccormick2[52]: - x[52] + r[52] <= 0
 mccormick2[53]: - x[53] + r[53] <= 0
 mccormick2[54]: - x[54] + r[54] <= 0
 mccormick2[55]: - x[55] + r[55] <= 0
 mccormick2[56]: - x[56] + r[56] <= 0
 mccormick2[57]: - x[57] + r[57] <= 0
 mccormick2[58]: - x[58] + r[58] <= 0
 mccormick2[59]: - x[59] + r[59] <= 0
 mccormick2[60]: - x[60] + r[60] <= 0
 mccormick2[61]: - x[61] + r[61] <= 0
 mccormick2[62]: - x[62] + r[62] <= 0
 mccormick2[63]: - x[63] + r[63] <= 0
 mccormick2[64]: - x[64] + r[64] <= 0
 mccormick2[65]: - x[65] + r[65] <= 0
 mccormick2[66]: - x[66] + r[66] <= 0
 mccormick2[67]: - x[67] + r[67] <= 0
 mccormick2[68]: - x[68] + r[68] <= 0
 mccormick2[69]: - x[69] + r[69] <= 0
 mccormick2[70]: - x[70] + r[70] <= 0
 mccormick2[71]: - x[71] + r[71] <= 0
 mccormick2[72]: - x[72] + r[72] <= 0
 mccormick2[73]: - x[73] + r[73] <= 0
 mccormick2[74]: - x[74] + r[74] <= 0
 mccormick2[75]: - x[75] + r[75] <= 0
 mccormick2[76]: - x[76] + r[76] <= 0
 mccormick2[77]: - x[77] + r[77] <= 0
 mccormick2[78]: - x[78] + r[78] <= 0
 mccormick2[79]: - x[79] + r[79] <= 0
 mccormick3[0]: x[0] + u[0] - r[0] <= 1
 mccormick3[1]: x[1] + u[1] - r[1] <= 1
 mccormick3[2]: x[2] + u[2] - r[2] <= 1
 mccormick3[3]: x[3] + u[3] - r[3] <= 1
 mccormick3[4]: x[4] + u[4] - r[4] <= 1
 mccormick3[5]: x[5] + u[5] - r[5] <= 1
 mccormick3[6]: x[6] + u[6] - r[6] <= 1
 mccormick3[7]: x[7] + u[7] - r[7] <= 1
 mccormick3[8]: x[8] + u[8] - r[8] <= 1
 mccormick3[9]: x[9] + u[9] - r[9] <= 1
 mccormick3[10]: x[10] + u[10] - r[10] <= 1
 mccormick3[11]: x[11] + u[11] - r[11] <= 1
 mccormick3[12]: x[12] + u[12] - r[12] <= 1
 mccormick3[13]: x[13] + u[13] - r[13] <= 1
 mccormick3[14]: x[14] + u[14] - r[14] <= 1
 mccormick3[15]: x[15] + u[15] - r[15] <= 1
 mccormick3[16]: x[16] + u[16] - r[16] <= 1
 mccormick3[17]: x[17] + u[17] - r[17] <= 1
 mccormick3[18]: x[18] + u[18] - r[18] <= 1
 mccormick3[19]: x[19] + u[19] - r[19] <= 1
 mccormick3[20]: x[20] + u[20] - r[20] <= 1
 mccormick3[21]: x[21] + u[21] - r[21] <= 1
 mccormick3[22]: x[22] + u[22] - r[22] <= 1
 mccormick3[23]: x[23] + u[23] - r[23] <= 1
 mccormick3[24]: x[24] + u[24] - r[24] <= 1
 mccormick3[25]: x[25] + u[25] - r[25] <= 1
 mccormick3[26]: x[26] + u[26] - r[26] <= 1
 mccormick3[27]: x[27] + u[27] - r[27] <= 1
 mccormick3[28]: x[28] + u[28] - r[28] <= 1
 mccormick3[29]: x[29] + u[29] - r[29] <= 1
 mccormick3[30]: x[30] + u[30] - r[30] <= 1
 mccormick3[31]: x[31] + u[31] - r[31] <= 1
 mccormick3[32]: x[32] + u[32] - r[32] <= 1
 mccormick3[33]: x[33] + u[33] - r[33] <= 1
 mccormick3[34]: x[34] + u[34] - r[34] <= 1
 mccormick3[35]: x[35] + u[35] - r[35] <= 1
 mccormick3[36]: x[36] + u[36] - r[36] <= 1
 mccormick3[37]: x[37] + u[37] - r[37] <= 1
 mccormick3[38]: x[38] + u[38] - r[38] <= 1
 mccormick3[39]: x[39] + u[39] - r[39] <= 1
 mccormick3[40]: x[40] + u[40] - r[40] <= 1
 mccormick3[41]: x[41] + u[41] - r[41] <= 1
 mccormick3[42]: x[42] + u[42] - r[42] <= 1
 mccormick3[43]: x[43] + u[43] - r[43] <= 1
 mccormick3[44]: x[44] + u[44] - r[44] <= 1
 mccormick3[45]: x[45] + u[45] - r[45] <= 1
 mccormick3[46]: x[46] + u[46] - r[46] <= 1
 mccormick3[47]: x[47] + u[47] - r[47] <= 1
 mccormick3[48]: x[48] + u[48] - r[48] <= 1
 mccormick3[49]: x[49] + u[49] - r[49] <= 1
 mccormick3[50]: x[50] + u[50] - r[50] <= 1
 mccormick3[51]: x[51] + u[51] - r[51] <= 1
 mccormick3[52]: x[52] + u[52] - r[52] <= 1
 mccormick3[53]: x[53] + u[53] - r[53] <= 1
 mccormick3[54]: x[54] + u[54] - r[54] <= 1
 mccormick3[55]: x[55] + u[55] - r[55] <= 1
 mccormick3[56]: x[56] + u[56] - r[56] <= 1
 mccormick3[57]: x[57] + u[57] - r[57] <= 1
 mccormick3[58]: x[58] + u[58] - r[58] <= 1
 mccormick3[59]: x[59] + u[59] - r[59] <= 1
 mccormick3[60]: x[60] + u[60] - r[60] <= 1
 mccormick3[61]: x[61] + u[61] - r[61] <= 1
 mccormick3[62]: x[62] + u[62] - r[62] <= 1
 mccormick3[63]: x[63] + u[63] - r[63] <= 1
 mccormick3[64]: x[64] + u[64] - r[64] <= 1
 mccormick3[65]: x[65] + u[65] - r[65] <= 1
 mccormick3[66]: x[66] + u[66] - r[66] <= 1
 mccormick3[67]: x[67] + u[67] - r[67] <= 1
 mccormick3[68]: x[68] + u[68] - r[68] <= 1
 mccormick3[69]: x[69] + u[69] - r[69] <= 1
 mccormick3[70]: x[70] + u[70] - r[70] <= 1
 mccormick3[71]: x[71] + u[71] - r[71] <= 1
 mccormick3[72]: x[72] + u[72] - r[72] <= 1
 mccormick3[73]: x[73] + u[73] - r[73] <= 1
 mccormick3[74]: x[74] + u[74] - r[74] <= 1
 mccormick3[75]: x[75] + u[75] - r[75] <= 1
 mccormick3[76]: x[76] + u[76] - r[76] <= 1
 mccormick3[77]: x[77] + u[77] - r[77] <= 1
 mccormick3[78]: x[78] + u[78] - r[78] <= 1
 mccormick3[79]: x[79] + u[79] - r[79] <= 1
Bounds
Binaries
 x[0] x[1] x[2] x[3] x[4] x[5] x[6] x[7] x[8] x[9] x[10] x[11] x[12] x[13]
 x[14] x[15] x[16] x[17] x[18] x[19] x[20] x[21] x[22] x[23] x[24] x[25]
 x[26] x[27] x[28] x[29] x[30] x[31] x[32] x[33] x[34] x[35] x[36] x[37]
 x[38] x[39] x[40] x[41] x[42] x[43] x[44] x[45] x[46] x[47] x[48] x[49]
 x[50] x[51] x[52] x[53] x[54] x[55] x[56] x[57] x[58] x[59] x[60] x[61]
 x[62] x[63] x[64] x[65] x[66] x[67] x[68] x[69] x[70] x[71] x[72] x[73]
 x[74] x[75] x[76] x[77] x[78] x[79] u[0] u[1] u[2] u[3] u[4] u[5] u[6]
 u[7] u[8] u[9] u[10] u[11] u[12] u[13] u[14] u[15] u[16] u[17] u[18] u[19]
 u[20] u[21] u[22] u[23] u[24] u[25] u[26] u[27] u[28] u[29] u[30] u[31]
 u[32] u[33] u[34] u[35] u[36] u[37] u[38] u[39] u[40] u[41] u[42] u[43]
 u[44] u[45] u[46] u[47] u[48] u[49] u[50] u[51] u[52] u[53] u[54] u[55]
 u[56] u[57] u[58] u[59] u[60] u[61] u[62] u[63] u[64] u[65] u[66] u[67]
 u[68] u[69] u[70] u[71] u[72] u[73] u[74] u[75] u[76] u[77] u[78] u[79]
 r[0] r[1] r[2] r[3] r[4] r[5] r[6] r[7] r[8] r[9] r[10] r[11] r[12] r[13]
 r[14] r[15] r[16] r[17] r[18] r[19] r[20] r[21] r[22] r[23] r[24] r[25]
 r[26] r[27] r[28] r[29] r[30] r[31] r[32] r[33] r[34] r[35] r[36] r[37]
 r[38] r[39] r[40] r[41] r[42] r[43] r[44] r[45] r[46] r[47] r[48] r[49]
 r[50] r[51] r[52] r[53] r[54] r[55] r[56] r[57] r[58] r[59] r[60] r[61]
 r[62] r[63] r[64] r[65] r[66] r[67] r[68] r[69] r[70] r[71] r[72] r[73]
 r[74] r[75] r[76] r[77] r[78] r[79]
End
